Problem:    
Rows:       256
Columns:    89 (72 integer, 72 binary)
Non-zeros:  960
Status:     INTEGER OPTIMAL
Objective:  value = 149.864126 (MINimum)

   No.   Row name        Activity     Lower bound   Upper bound
------ ------------    ------------- ------------- -------------
     1 r.5                   149.864             0               
     2 r.6                   82.8647       -976.37               
     3 r.7                   1149.86             0               
     4 r.8                  -917.135      -963.538               
     5 r.9                   149.864             0               
     6 r.10                  89.1664      -975.443               
     7 r.11                  1149.86             0               
     8 r.12                  -954.11       -961.12               
     9 r.13                  1149.86             0               
    10 r.14                  -911.24      -957.326               
    11 r.15                  149.864             0               
    12 r.16                  88.7595      -935.938               
    13 r.17                  1149.86             0               
    14 r.18                 -953.915      -977.593               
    15 r.19                  149.864             0               
    16 r.20                   46.085      -963.322               
    17 r.21                  1149.86             0               
    18 r.22                 -976.729      -978.644               
    19 r.23                  149.864             0               
    20 r.24                  83.3775      -967.611               
    21 r.25                  1149.86             0               
    22 r.26                 -998.899      -998.899               
    23 r.27                  149.864             0               
    24 r.28                 -988.558      -988.558               
    25 r.29                  149.864             0               
    26 r.30                  149.864      -939.568               
    27 r.31                  1149.86             0               
    28 r.32                 -850.136      -933.001               
    29 r.33                  1149.86             0               
    30 r.34                 -850.136      -938.895               
    31 r.35                  149.864             0               
    32 r.36                  149.864      -932.468               
    33 r.37                        1             1             = 
    34 r.38                        1             1             = 
    35 r.39                        1             1             = 
    36 r.40                        1             1             = 
    37 r.41                        1             1             = 
    38 r.42                        1             1             = 
    39 r.43                        1             1             = 
    40 r.44                        1             1             = 
    41 r.45                     1000             2               
    42 r.46                    -1000         -1001               
    43 r.47                   2006.3      -975.443               
    44 r.48                        2             2               
    45 r.49                       -2         -1001               
    46 r.50                 -36.9747       -961.12               
    47 r.51                     1001             2               
    48 r.52                    -1001         -1001               
    49 r.53                  2005.89      -957.326               
    50 r.54                     1001             2               
    51 r.55                    -1001         -1001               
    52 r.56                  2005.89      -935.938               
    53 r.57                     1001             2               
    54 r.58                    -1001         -1001               
    55 r.59                  1963.22      -977.593               
    56 r.60                     1001             2               
    57 r.61                    -1001         -1001               
    58 r.62                  1963.22      -963.322               
    59 r.63                     1001             2               
    60 r.64                    -1001         -1001               
    61 r.65                  1940.41      -978.644               
    62 r.66                     1001             2               
    63 r.67                    -1001         -1001               
    64 r.68                  2000.51      -967.611               
    65 r.69                  80.9497       -976.37               
    66 r.70                  -919.05      -963.538               
    67 r.71                  1072.45       -976.37               
    68 r.72                  72.4486      -963.538               
    69 r.73                  66.9994      -939.568               
    70 r.74                 -933.001      -933.001               
    71 r.75                  66.9994      -939.568               
    72 r.76                 -933.001      -933.001               
    73 r.77                     1001             2               
    74 r.78                    -1001         -1001               
    75 r.79                     2067      -938.895               
    76 r.80                     1001             2               
    77 r.81                    -1001         -1001               
    78 r.82                     2067      -932.468               
    79 r.83                     1000             2               
    80 r.84                    -1000         -1001               
    81 r.85                  1994.11       23.6302               
    82 r.86                        2             2               
    83 r.87                       -2         -1001               
    84 r.88                  36.4618       36.4618               
    85 r.89                     1001             2               
    86 r.90                    -1001         -1001               
    87 r.91                     2000      -957.326               
    88 r.92                     1001             2               
    89 r.93                    -1001         -1001               
    90 r.94                  2042.36      -935.938               
    91 r.95                     1001             2               
    92 r.96                    -1001         -1001               
    93 r.97                  1957.33      -977.593               
    94 r.98                     1001             2               
    95 r.99                    -1001         -1001               
    96 r.100                 1999.68      -963.322               
    97 r.101                    1001             2               
    98 r.102                   -1001         -1001               
    99 r.103                 1934.51      -978.644               
   100 r.104                    1001             2               
   101 r.105                   -1001         -1001               
   102 r.106                 2036.97      -967.611               
   103 r.107                 87.2514      -975.443               
   104 r.108                -956.025       -961.12               
   105 r.109                 1078.75      -975.443               
   106 r.110                 35.4739       -961.12               
   107 r.111                    1000             2               
   108 r.112                   -1000         -1001               
   109 r.113                  2061.1      -939.568               
   110 r.114                       2             2               
   111 r.115                      -2         -1001               
   112 r.116                -896.539      -933.001               
   113 r.117                -938.895      -938.895               
   114 r.118                 61.1046      -932.468               
   115 r.119                -896.539      -938.895               
   116 r.120                 103.461      -932.468               
   117 r.121                    1001             2               
   118 r.122                   -1001         -1001               
   119 r.123                 1994.11       23.6302               
   120 r.124                    1001             2               
   121 r.125                   -1001         -1001               
   122 r.126                 1994.11       36.4618               
   123 r.127                    1001             2               
   124 r.128                   -1001         -1001               
   125 r.129                 2000.41       24.5572               
   126 r.130                    1001             2               
   127 r.131                   -1001         -1001               
   128 r.132                 1957.13       38.8796               
   129 r.133                -957.326      -957.326               
   130 r.134                 42.6745      -935.938               
   131 r.135                -957.326      -957.326               
   132 r.136                 42.6745      -935.938               
   133 r.137                       2             2               
   134 r.138                      -2         -1001               
   135 r.139                -65.4888      -978.644               
   136 r.140                    1000             2               
   137 r.141                   -1000         -1001               
   138 r.142                 1994.62      -967.611               
   139 r.143                -913.155      -957.326               
   140 r.144                 86.8445      -935.938               
   141 r.145                 78.3434      -957.326               
   142 r.146                 1078.34      -935.938               
   143 r.147                    1001             2               
   144 r.148                   -1001         -1001               
   145 r.149                  2061.1      -939.568               
   146 r.150                    1001             2               
   147 r.151                   -1001         -1001               
   148 r.152                  2061.1      -933.001               
   149 r.153                -938.895      -938.895               
   150 r.154                 61.1046      -932.468               
   151 r.155                -938.895      -938.895               
   152 r.156                 61.1046      -932.468               
   153 r.157                    1001             2               
   154 r.158                   -1001         -1001               
   155 r.159                 2036.78       23.6302               
   156 r.160                    1001             2               
   157 r.161                   -1001         -1001               
   158 r.162                 2036.78       36.4618               
   159 r.163                    1001             2               
   160 r.164                   -1001         -1001               
   161 r.165                 2043.08       24.5572               
   162 r.166                    1001             2               
   163 r.167                   -1001         -1001               
   164 r.168                 1999.81       38.8796               
   165 r.169                       2             2               
   166 r.170                      -2         -1001               
   167 r.171                -22.8143      -978.644               
   168 r.172                    1000             2               
   169 r.173                   -1000         -1001               
   170 r.174                 2037.29      -967.611               
   171 r.175                 -955.83      -977.593               
   172 r.176                   44.17      -963.322               
   173 r.177                 35.6689      -977.593               
   174 r.178                 1035.67      -963.322               
   175 r.179                    1001             2               
   176 r.180                   -1001         -1001               
   177 r.181                 2103.78      -939.568               
   178 r.182                    1001             2               
   179 r.183                   -1001         -1001               
   180 r.184                 2103.78      -933.001               
   181 r.185                -896.221      -938.895               
   182 r.186                 103.779      -932.468               
   183 r.187                -896.221      -938.895               
   184 r.188                 103.779      -932.468               
   185 r.189                    1001             2               
   186 r.190                   -1001         -1001               
   187 r.191                 2059.19       23.6302               
   188 r.192                    1001             2               
   189 r.193                   -1001         -1001               
   190 r.194                    2000       36.4618               
   191 r.195                    1001             2               
   192 r.196                   -1001         -1001               
   193 r.197                 2065.49       24.5572               
   194 r.198                    1001             2               
   195 r.199                   -1001         -1001               
   196 r.200                 1963.03       38.8796               
   197 r.201                       2             2               
   198 r.202                      -2         -1001               
   199 r.203                 65.0819       42.6745               
   200 r.204                    1000             2               
   201 r.205                   -1000         -1001               
   202 r.206                 2005.89       64.0619               
   203 r.207                       2             2               
   204 r.208                      -2         -1001               
   205 r.209                 22.4074       22.4074               
   206 r.210                    1000             2               
   207 r.211                   -1000         -1001               
   208 r.212                 1963.22       36.6776               
   209 r.213                -978.644      -978.644               
   210 r.214                 81.4626      -967.611               
   211 r.215                 12.8546      -978.644               
   212 r.216                 1072.96      -967.611               
   213 r.217                 126.187      -939.568               
   214 r.218                -873.813      -933.001               
   215 r.219                 66.9994      -939.568               
   216 r.220                -933.001      -933.001               
   217 r.221                -873.813      -938.895               
   218 r.222                 126.187      -932.468               
   219 r.223                -933.001      -938.895               
   220 r.224                 66.9994      -932.468               
   221 r.225                    1000             2               
   222 r.226                   -1000         -1001               
   223 r.227                  1939.3       24.5572               
   224 r.228                       2             2               
   225 r.229                      -2         -1001               
   226 r.230                 896.026       38.8796               
   227 r.231                    1001             2               
   228 r.232                   -1001         -1001               
   229 r.233                  1938.9       42.6745               
   230 r.234                    1001             2               
   231 r.235                   -1001         -1001               
   232 r.236                  1938.9       64.0619               
   233 r.237                    1001             2               
   234 r.238                   -1001         -1001               
   235 r.239                 1896.22       22.4074               
   236 r.240                    1001             2               
   237 r.241                   -1001         -1001               
   238 r.242                 1896.22       36.6776               
   239 r.243                    1001             2               
   240 r.244                   -1001         -1001               
   241 r.245                    2000      -938.895               
   242 r.246                    1001             2               
   243 r.247                   -1001         -1001               
   244 r.248                    2000      -932.468               
   245 r.249                    1001             2               
   246 r.250                   -1001         -1001               
   247 r.251                    1933       23.6302               
   248 r.252                    1001             2               
   249 r.253                   -1001         -1001               
   250 r.254                    1933       36.4618               
   251 r.255                    1001             2               
   252 r.256                   -1001         -1001               
   253 r.257                    2000       60.4316               
   254 r.258                    1001             2               
   255 r.259                   -1001         -1001               
   256 r.260                    2000       66.9994               

   No. Column name       Activity     Lower bound   Upper bound
------ ------------    ------------- ------------- -------------
     1 tt                    149.864             0               
     2 s_1_1        *              0             0             1 
     3 t_1_1                 66.9994             0               
     4 s_1_7        *              0             0             1 
     5 s_2_1        *              1             0             1 
     6 t_2_1                 66.9994             0               
     7 s_2_7        *              1             0             1 
     8 s_1_2        *              0             0             1 
     9 t_1_2                 61.1046             0               
    10 s_1_8        *              1             0             1 
    11 s_2_2        *              1             0             1 
    12 t_2_2                 103.461             0               
    13 s_2_8        *              0             0             1 
    14 s_1_3        *              1             0             1 
    15 t_1_3                 61.1046             0               
    16 s_2_3        *              0             0             1 
    17 t_2_3                 61.1046             0               
    18 s_1_4        *              1             0             1 
    19 t_1_4                 103.779             0               
    20 s_2_4        *              0             0             1 
    21 t_2_4                 103.779             0               
    22 s_1_5        *              1             0             1 
    23 t_1_5                 126.187             0               
    24 s_2_5        *              0             0             1 
    25 t_2_5                 66.9994             0               
    26 s_1_6        *              1             0             1 
    27 t_1_6                 147.949             0               
    28 s_2_6        *              0             0             1 
    29 t_2_6                 1139.45             0               
    30 t_1_7                       0             0               
    31 t_2_7                       0             0               
    32 t_1_8                       0             0               
    33 t_2_8                       0             0               
    34 r_1_1_2      *              1             0             1 
    35 u_1_1_2      *              0             0             1 
    36 r_2_1_2      *              0             0             1 
    37 u_2_1_2      *              0             0             1 
    38 r_1_1_3      *              1             0             1 
    39 u_1_1_3      *              0             0             1 
    40 r_2_1_3      *              1             0             1 
    41 u_2_1_3      *              0             0             1 
    42 r_1_1_4      *              1             0             1 
    43 u_1_1_4      *              0             0             1 
    44 r_2_1_4      *              1             0             1 
    45 u_2_1_4      *              0             0             1 
    46 r_1_1_5      *              1             0             1 
    47 u_1_1_5      *              0             0             1 
    48 r_2_1_5      *              1             0             1 
    49 u_2_1_5      *              0             0             1 
    50 r_1_1_8      *              1             0             1 
    51 u_1_1_8      *              0             0             1 
    52 r_2_1_8      *              1             0             1 
    53 u_2_1_8      *              0             0             1 
    54 r_1_2_3      *              1             0             1 
    55 u_1_2_3      *              0             0             1 
    56 r_2_2_3      *              1             0             1 
    57 u_2_2_3      *              0             0             1 
    58 r_1_2_4      *              1             0             1 
    59 u_1_2_4      *              0             0             1 
    60 r_2_2_4      *              1             0             1 
    61 u_2_2_4      *              0             0             1 
    62 r_1_2_5      *              1             0             1 
    63 u_1_2_5      *              0             0             1 
    64 r_2_2_5      *              1             0             1 
    65 u_2_2_5      *              0             0             1 
    66 r_1_2_7      *              1             0             1 
    67 u_1_2_7      *              0             0             1 
    68 r_2_2_7      *              0             0             1 
    69 u_2_2_7      *              1             0             1 
    70 r_1_3_5      *              0             0             1 
    71 u_1_3_5      *              0             0             1 
    72 r_2_3_5      *              1             0             1 
    73 u_2_3_5      *              0             0             1 
    74 r_1_3_7      *              1             0             1 
    75 u_1_3_7      *              0             0             1 
    76 r_2_3_7      *              1             0             1 
    77 u_2_3_7      *              0             0             1 
    78 r_1_4_5      *              0             0             1 
    79 u_1_4_5      *              0             0             1 
    80 r_2_4_5      *              1             0             1 
    81 u_2_4_5      *              0             0             1 
    82 r_1_4_7      *              1             0             1 
    83 u_1_4_7      *              0             0             1 
    84 r_2_4_7      *              1             0             1 
    85 u_2_4_7      *              0             0             1 
    86 r_1_7_8      *              1             0             1 
    87 u_1_7_8      *              0             0             1 
    88 r_2_7_8      *              1             0             1 
    89 u_2_7_8      *              0             0             1 

Integer feasibility conditions:

KKT.PE: max.abs.err = 4.55e-13 on row 128
        max.rel.err = 1.10e-16 on row 128
        High quality

KKT.PB: max.abs.err = 0.00e+00 on row 0
        max.rel.err = 0.00e+00 on row 0
        High quality

End of output
